\ This file has been generated by DOcplex
\ ENCODING=ISO-8859-1
\Problem name: stage1

Maximize
 obj: 630.243338823081 x_0_0 + 630.243338823081 x_0_1 + 883.731496730782 x_1_0
      + 883.731496730782 x_1_1 + 3558.592653589793 x_2_0
      + 3558.592653589793 x_2_1
Subject To
 c1: 15 x_0_0 + 15 x_0_1 + 10 x_1_0 + 10 x_1_1 + 18 x_2_0 + 18 x_2_1 <= 60

Bounds
 0 <= x_0_0 <= 1
 0 <= x_0_1 <= 1
 0 <= x_1_0 <= 1
 0 <= x_1_1 <= 1
 0 <= x_2_0 <= 1
 0 <= x_2_1 <= 1

Binaries
 x_0_0 x_0_1 x_1_0 x_1_1 x_2_0 x_2_1
End
